NAME          
ROWS
 N  OBJ
 L  c1
 L  c2
 L  c3
 L  c4
COLUMNS
    MARKER    'MARKER'                 'INTORG'
    x[1]      c1        27
    x[1]      c2        516
    x[1]      c3        859
    x[1]      c4        124
    x[1]      OBJ       -328
    x[2]      c1        347
    x[2]      c2        992
    x[2]      c3        507
    x[2]      c4        771
    x[2]      OBJ       -443
    x[3]      c1        522
    x[3]      c2        521
    x[3]      c3        724
    x[3]      c4        683
    x[3]      OBJ       -485
    x[4]      c1        572
    x[4]      c2        468
    x[4]      c3        928
    x[4]      c4        50
    x[4]      OBJ       -142
    x[5]      c1        547
    x[5]      c2        992
    x[5]      c3        177
    x[5]      c4        979
    x[5]      OBJ       -407
    x[6]      c1        339
    x[6]      c2        172
    x[6]      c3        203
    x[6]      c4        64
    x[6]      OBJ       -728
    x[7]      c1        62
    x[7]      c2        976
    x[7]      c3        824
    x[7]      c4        332
    x[7]      OBJ       -281
    x[8]      c1        85
    x[8]      c2        138
    x[8]      c3        719
    x[8]      c4        841
    x[8]      OBJ       -572
    x[9]      c1        555
    x[9]      c2        789
    x[9]      c3        432
    x[9]      c4        997
    x[9]      OBJ       -1000
    x[10]     c1        203
    x[10]     c2        778
    x[10]     c3        267
    x[10]     c4        325
    x[10]     OBJ       -241
    x[11]     c1        875
    x[11]     c2        192
    x[11]     c3        459
    x[11]     c4        306
    x[11]     OBJ       -38
    x[12]     c1        280
    x[12]     c2        575
    x[12]     c3        304
    x[12]     c4        423
    x[12]     OBJ       -445
    x[13]     c1        562
    x[13]     c2        717
    x[13]     c3        560
    x[13]     c4        255
    x[13]     OBJ       -741
    x[14]     c1        242
    x[14]     c2        796
    x[14]     c3        490
    x[14]     c4        748
    x[14]     OBJ       -197
    x[15]     c1        901
    x[15]     c2        478
    x[15]     c3        701
    x[15]     c4        711
    x[15]     OBJ       -995
    x[16]     c1        858
    x[16]     c2        533
    x[16]     c3        710
    x[16]     c4        396
    x[16]     OBJ       -793
    x[17]     c1        244
    x[17]     c2        788
    x[17]     c3        702
    x[17]     c4        515
    x[17]     OBJ       -802
    x[18]     c1        951
    x[18]     c2        912
    x[18]     c3        413
    x[18]     c4        331
    x[18]     OBJ       -414
    x[19]     c1        555
    x[19]     c2        517
    x[19]     c3        566
    x[19]     c4        691
    x[19]     OBJ       -597
    x[20]     c1        812
    x[20]     c2        994
    x[20]     c3        597
    x[20]     c4        670
    x[20]     OBJ       -931
    x[21]     c1        94
    x[21]     c2        76
    x[21]     c3        578
    x[21]     c4        438
    x[21]     OBJ       -894
    x[22]     c1        838
    x[22]     c2        523
    x[22]     c3        631
    x[22]     c4        623
    x[22]     OBJ       -570
    x[23]     c1        220
    x[23]     c2        246
    x[23]     c3        778
    x[23]     c4        162
    x[23]     OBJ       -379
    x[24]     c1        79
    x[24]     c2        127
    x[24]     c3        65
    x[24]     c4        747
    x[24]     OBJ       -129
    x[25]     c1        338
    x[25]     c2        891
    x[25]     c3        669
    x[25]     c4        192
    x[25]     OBJ       -942
RHS
    rhs       c1        5554
    rhs       c2        7354
    rhs       c3        6932
    rhs       c4        6187
RANGES
BOUNDS
 BV bounds    x[1]
 BV bounds    x[2]
 BV bounds    x[3]
 BV bounds    x[4]
 BV bounds    x[5]
 BV bounds    x[6]
 BV bounds    x[7]
 BV bounds    x[8]
 BV bounds    x[9]
 BV bounds    x[10]
 BV bounds    x[11]
 BV bounds    x[12]
 BV bounds    x[13]
 BV bounds    x[14]
 BV bounds    x[15]
 BV bounds    x[16]
 BV bounds    x[17]
 BV bounds    x[18]
 BV bounds    x[19]
 BV bounds    x[20]
 BV bounds    x[21]
 BV bounds    x[22]
 BV bounds    x[23]
 BV bounds    x[24]
 BV bounds    x[25]
ENDATA
